Route #1: 0 9 23 45 6 14 43 26 38 0
Route #2: 0 13 30 4 2 37 3 5 36 0
Route #3: 0 32 39 22 7 12 0
Route #4: 0 10 44 25 18 35 16 0
Route #5: 0 19 15 24 42 33 8 11 0
Route #6: 0 41 20 27 1 40 34 31 29 21 0
Route #7: 0 17 28 0
Cost 993:
